DIMENSION: 130
86
69
64
124
129
61
109
76
11
5
45
16
128
105
1
41
39
71
130
2
50
117
112
62
115
28
66
85
125
90
83
3
114
108
8
18
20
35
54
118
80
46
126
30
59
78
121
21
33
13
67
96
14
10
23
22
37
93
47
40
122
55
44
4
42
51
60
53
120
102
6
91
72
49
58
106
38
92
73
99
74
75
52
9
57
56
65
87
12
81
103
77
82
101
123
111
119
84
36
32
113
94
19
27
34
17
31
100
15
24
116
79
95
29
89
110
98
25
48
68
63
43
104
107
127
70
7
97
26
88
